# Objective value = 1.9908033908372706e+03
x[0] 1
x[1] 1
x[2] 0
x[3] 1
x[4] 1
x[5] 0
x[6] 0
x[7] 1
x[8] 0
x[9] 1
x[10] 0
x[11] 1
x[12] 0
x[13] 0
x[14] 1
x[15] 1
x[16] 1
x[17] 1
x[18] 1
x[19] 1
x[20] 1
x[21] 0
x[22] 0
x[23] 1
x[24] 0
x[25] 1
x[26] 0
x[27] 1
x[28] 0
x[29] 0
x[30] 1
x[31] 1
x[32] 0
x[33] 1
x[34] 1
x[35] 0
x[36] 1
x[37] 0
x[38] 0
x[39] 1
x[40] 0
x[41] 1
x[42] 1
x[43] 1
x[44] 0
x[45] 0
x[46] 1
x[47] 0
x[48] 0
x[49] 1
x[50] 0
x[51] 1
x[52] 0
x[53] 0
x[54] 0
x[55] 1
x[56] 1
x[57] 0
x[58] 0
x[59] 1
x[60] 1
x[61] 0
x[62] 1
x[63] 0
x[64] 0
x[65] 0
x[66] 0
x[67] 0
x[68] 0
x[69] 1
x[70] 1
x[71] 0
x[72] 0
x[73] 1
x[74] 1
x[75] 0
x[76] 1
x[77] 0
x[78] 0
x[79] 1
x[80] 0
x[81] 0
x[82] 1
x[83] 0
x[84] 1
x[85] 0
x[86] 1
x[87] 1
x[88] 1
x[89] 1
x[90] 1
x[91] 1
x[92] 1
x[93] 0
x[94] 0
x[95] 0
x[96] 1
x[97] 0
x[98] 1
x[99] 1
x[100] 0
x[101] 1
x[102] 0
x[103] 1
x[104] 1
x[105] 0
x[106] 1
x[107] 0
x[108] 1
x[109] 1
x[110] 0
x[111] 1
x[112] 0
x[113] 1
x[114] 1
x[115] 1
x[116] 1
x[117] 0
x[118] 0
x[119] 0
x[120] 1
x[121] 0
x[122] 1
x[123] 1
x[124] 1
x[125] 0
x[126] 1
x[127] 1
x[128] 0
x[129] 0
x[130] 1
x[131] 1
x[132] 0
x[133] 0
x[134] 0
x[135] 1
x[136] 1
x[137] 1
x[138] 0
x[139] 0
x[140] 0
x[141] 0
x[142] 1
x[143] 0
x[144] 1
x[145] 1
x[146] 1
x[147] 1
x[148] 0
x[149] 1
x[150] 0
x[151] 0
x[152] 0
x[153] 1
x[154] 1
x[155] 0
x[156] 1
x[157] 1
x[158] 1
x[159] 0
x[160] 0
x[161] 1
x[162] 1
x[163] 1
x[164] 1
x[165] 0
x[166] 0
x[167] 1
x[168] 0
x[169] 1
x[170] 1
x[171] 1
x[172] 0
x[173] 1
x[174] 1
x[175] 0
x[176] 1
x[177] 1
x[178] 1
x[179] 1
x[180] 1
x[181] 1
x[182] 0
x[183] 1
x[184] 0
x[185] 1
x[186] 0
x[187] 0
x[188] 0
x[189] 1
x[190] 0
x[191] 0
x[192] 0
x[193] 0
x[194] 1
x[195] 1
x[196] 0
x[197] 1
x[198] 1
x[199] 1
x[200] 1
x[201] 1
x[202] 1
x[203] 0
x[204] 0
x[205] 1
x[206] 0
x[207] 0
x[208] 0
x[209] 1
x[210] 1
x[211] 1
x[212] 1
x[213] 1
x[214] 1
x[215] 0
x[216] 1
x[217] 1
x[218] 0
x[219] 0
x[220] 0
x[221] 1
x[222] 0
x[223] 1
x[224] 0
x[225] 1
x[226] 1
x[227] 1
x[228] 0
x[229] 1
x[230] 1
x[231] 0
x[232] 1
x[233] 1
x[234] 0
x[235] 1
x[236] 0
x[237] 1
x[238] 0
x[239] 0
x[240] 0
x[241] 1
x[242] 1
x[243] 1
x[244] 1
x[245] 1
x[246] 0
x[247] 0
x[248] 1
x[249] 1
x[250] 1
x[251] 1
x[252] 1
x[253] 0
x[254] 0
x[255] 0
x[256] 1
x[257] 1
x[258] 1
x[259] 0
x[260] 1
x[261] 0
x[262] 0
x[263] 1
x[264] 0
x[265] 1
x[266] 1
x[267] 1
x[268] 1
x[269] 0
x[270] 0
x[271] 1
x[272] 1
x[273] 0
x[274] 0
x[275] 1
x[276] 0
x[277] 1
x[278] 1
x[279] 0
x[280] 0
x[281] 1
x[282] 1
x[283] 0
x[284] 0
x[285] 0
x[286] 0
x[287] 0
x[288] 1
x[289] 1
x[290] 0
x[291] 1
x[292] 1
x[293] 1
x[294] 1
x[295] 1
x[296] 1
x[297] 1
x[298] 0
x[299] 1
x[300] 1
x[301] 0
x[302] 0
x[303] 1
x[304] 1
x[305] 0
x[306] 1
x[307] 0
x[308] 0
x[309] 0
x[310] 1
x[311] 0
x[312] 1
x[313] 0
x[314] 1
x[315] 1
x[316] 1
x[317] 1
x[318] 1
x[319] 1
x[320] 0
x[321] 1
x[322] 1
x[323] 0
x[324] 0
x[325] 1
x[326] 0
x[327] 1
x[328] 1
x[329] 1
x[330] 1
x[331] 1
x[332] 1
x[333] 0
x[334] 1
x[335] 1
x[336] 0
x[337] 1
x[338] 1
x[339] 0
x[340] 0
x[341] 1
x[342] 0
x[343] 0
x[344] 1
x[345] 1
x[346] 0
x[347] 0
x[348] 1
x[349] 1
x[350] 1
x[351] 1
x[352] 1
x[353] 0
x[354] 1
x[355] 1
x[356] 0
x[357] 0
x[358] 0
x[359] 0
x[360] 0
x[361] 1
x[362] 0
x[363] 0
x[364] 0
x[365] 1
x[366] 0
x[367] 1
x[368] 1
x[369] 0
x[370] 0
x[371] 1
x[372] 0
x[373] 0
x[374] 1
x[375] 0
x[376] 0
x[377] 1
x[378] 0
x[379] 0
x[380] 0
x[381] 1
x[382] 1
x[383] 0
x[384] 1
x[385] 1
x[386] 0
x[387] 1
x[388] 1
x[389] 0
x[390] 0
x[391] 1
x[392] 0
x[393] 1
x[394] 1
x[395] 0
x[396] 0
x[397] 1
x[398] 0
x[399] 1
x[400] 1
x[401] 1
x[402] 1
x[403] 0
x[404] 0
x[405] 0
x[406] 1
x[407] 1
x[408] 1
x[409] 1
x[410] 1
x[411] 1
x[412] 1
x[413] 1
x[414] 1
x[415] 1
x[416] 1
x[417] 0
x[418] 1
x[419] 0
x[420] 0
x[421] 1
x[422] 0
x[423] 1
x[424] 1
x[425] 0
x[426] 0
x[427] 0
x[428] 1
x[429] 1
x[430] 1
x[431] 1
x[432] 0
x[433] 0
x[434] 0
x[435] 0
x[436] 1
x[437] 0
x[438] 0
x[439] 1
x[440] 0
x[441] 0
x[442] 0
x[443] 0
x[444] 0
x[445] 1
x[446] 1
x[447] 0
x[448] 1
x[449] 1
x[450] 1
x[451] 0
x[452] 0
x[453] 0
x[454] 1
x[455] 1
x[456] 1
x[457] 1
x[458] 1
x[459] 1
x[460] 0
x[461] 0
x[462] 1
x[463] 1
x[464] 0
x[465] 0
x[466] 0
x[467] 0
x[468] 1
x[469] 0
x[470] 0
x[471] 1
x[472] 0
x[473] 0
x[474] 0
x[475] 1
x[476] 0
x[477] 1
x[478] 1
x[479] 1
x[480] 1
x[481] 1
x[482] 1
x[483] 0
x[484] 1
x[485] 1
x[486] 1
x[487] 0
x[488] 1
x[489] 1
x[490] 1
x[491] 1
x[492] 0
x[493] 1
x[494] 1
x[495] 1
x[496] 1
x[497] 1
x[498] 0
x[499] 0
x[500] 1
x[501] 0
x[502] 0
x[503] 1
x[504] 0
x[505] 0
x[506] 0
x[507] 1
x[508] 0
x[509] 1
x[510] 1
x[511] 0
x[512] 1
x[513] 0
x[514] 1
x[515] 0
x[516] 1
x[517] 0
x[518] 1
x[519] 1
x[520] 0
x[521] 1
x[522] 1
x[523] 1
x[524] 1
x[525] 0
x[526] 1
x[527] 1
x[528] 1
x[529] 1
x[530] 0
x[531] 1
x[532] 0
x[533] 1
x[534] 1
x[535] 1
x[536] 0
x[537] 1
x[538] 0
x[539] 0
x[540] 0
x[541] 0
x[542] 1
x[543] 1
x[544] 1
x[545] 1
x[546] 1
x[547] 1
x[548] 0
x[549] 1
x[550] 1
x[551] 0
x[552] 0
x[553] 1
x[554] 1
x[555] 0
x[556] 0
x[557] 0
x[558] 1
x[559] 0
x[560] 1
x[561] 1
x[562] 1
x[563] 0
x[564] 0
x[565] 0
x[566] 0
x[567] 1
x[568] 1
x[569] 1
x[570] 0
x[571] 1
x[572] 1
x[573] 1
x[574] 0
x[575] 0
x[576] 0
x[577] 0
x[578] 1
x[579] 0
x[580] 0
x[581] 0
x[582] 1
x[583] 0
x[584] 0
x[585] 0
x[586] 0
x[587] 0
x[588] 1
x[589] 0
x[590] 1
x[591] 0
x[592] 1
x[593] 1
x[594] 1
x[595] 1
x[596] 1
x[597] 0
x[598] 0
x[599] 0
x[600] 0
x[601] 1
x[602] 1
x[603] 1
x[604] 0
x[605] 0
x[606] 0
x[607] 1
x[608] 0
x[609] 0
x[610] 0
x[611] 0
x[612] 0
x[613] 0
x[614] 1
x[615] 1
x[616] 1
x[617] 0
x[618] 0
x[619] 0
x[620] 1
x[621] 1
x[622] 1
x[623] 1
x[624] 0
x[625] 0
x[626] 1
x[627] 1
x[628] 0
x[629] 1
x[630] 1
x[631] 0
x[632] 1
x[633] 1
x[634] 1
x[635] 0
x[636] 1
x[637] 0
x[638] 1
x[639] 0
x[640] 0
x[641] 0
x[642] 1
x[643] 1
x[644] 0
x[645] 0
x[646] 1
x[647] 1
x[648] 1
x[649] 1
x[650] 1
x[651] 0
x[652] 0
x[653] 1
x[654] 1
x[655] 1
x[656] 1
x[657] 1
x[658] 1
x[659] 0
x[660] 1
x[661] 0
x[662] 1
x[663] 0
x[664] 1
x[665] 1
x[666] 0
x[667] 1
x[668] 0
x[669] 1
x[670] 1
x[671] 1
x[672] 1
x[673] 1
x[674] 1
x[675] 0
x[676] 0
x[677] 1
x[678] 0
x[679] 1
x[680] 0
x[681] 0
x[682] 1
x[683] 0
x[684] 0
x[685] 0
x[686] 1
x[687] 0
x[688] 1
x[689] 1
x[690] 0
x[691] 1
x[692] 1
x[693] 1
x[694] 0
x[695] 1
x[696] 1
x[697] 0
x[698] 0
x[699] 1
x[700] 0
x[701] 0
x[702] 1
x[703] 1
x[704] 1
x[705] 0
x[706] 1
x[707] 1
x[708] 0
x[709] 0
x[710] 0
x[711] 1
x[712] 1
x[713] 1
x[714] 0
x[715] 1
x[716] 1
x[717] 1
x[718] 1
x[719] 0
x[720] 0
x[721] 0
x[722] 0
x[723] 1
x[724] 0
x[725] 1
x[726] 0
x[727] 0
x[728] 1
x[729] 0
x[730] 1
x[731] 1
x[732] 0
x[733] 0
x[734] 0
x[735] 1
x[736] 1
x[737] 1
x[738] 1
x[739] 1
x[740] 1
x[741] 1
x[742] 1
x[743] 0
x[744] 0
x[745] 1
x[746] 1
x[747] 1
x[748] 0
x[749] 0
x[750] 1
x[751] 0
x[752] 0
x[753] 1
x[754] 1
x[755] 1
x[756] 1
x[757] 1
x[758] 1
x[759] 0
x[760] 0
x[761] 0
x[762] 1
x[763] 0
x[764] 1
x[765] 1
x[766] 1
x[767] 1
x[768] 0
x[769] 1
x[770] 1
x[771] 1
x[772] 0
x[773] 0
x[774] 1
x[775] 0
x[776] 1
x[777] 0
x[778] 1
x[779] 1
x[780] 1
x[781] 0
x[782] 1
x[783] 1
x[784] 0
x[785] 0
x[786] 0
x[787] 1
x[788] 0
x[789] 0
x[790] 1
x[791] 1
x[792] 1
x[793] 0
x[794] 1
x[795] 0
x[796] 0
x[797] 1
x[798] 1
x[799] 1
x[800] 0
x[801] 1
x[802] 0
x[803] 1
x[804] 1
x[805] 0
x[806] 0
x[807] 1
x[808] 0
x[809] 1
x[810] 1
x[811] 1
x[812] 0
x[813] 0
x[814] 0
x[815] 1
x[816] 0
x[817] 1
x[818] 0
x[819] 0
x[820] 0
x[821] 1
x[822] 0
x[823] 1
x[824] 1
x[825] 0
x[826] 1
x[827] 1
x[828] 1
x[829] 0
x[830] 1
x[831] 1
x[832] 1
x[833] 0
x[834] 1
x[835] 0
x[836] 1
x[837] 0
x[838] 0
x[839] 1
x[840] 1
x[841] 1
x[842] 0
x[843] 1
x[844] 1
x[845] 1
x[846] 1
x[847] 1
x[848] 1
x[849] 0
x[850] 1
x[851] 1
x[852] 1
x[853] 1
x[854] 1
x[855] 1
x[856] 0
x[857] 1
x[858] 1
x[859] 0
x[860] 1
x[861] 1
x[862] 1
x[863] 0
x[864] 1
x[865] 1
x[866] 0
x[867] 0
x[868] 0
x[869] 1
x[870] 1
x[871] 1
x[872] 0
x[873] 0
x[874] 0
x[875] 1
x[876] 0
x[877] 0
x[878] 1
x[879] 1
x[880] 1
x[881] 0
x[882] 1
x[883] 1
x[884] 1
x[885] 1
x[886] 0
x[887] 0
x[888] 1
x[889] 0
x[890] 0
x[891] 1
x[892] 1
x[893] 0
x[894] 1
x[895] 0
x[896] 1
x[897] 1
x[898] 1
x[899] 1
x[900] 0
x[901] 1
x[902] 1
x[903] 0
x[904] 1
x[905] 1
x[906] 1
x[907] 1
x[908] 0
x[909] 1
x[910] 1
x[911] 1
x[912] 1
x[913] 1
x[914] 1
x[915] 1
x[916] 1
x[917] 0
x[918] 0
x[919] 1
x[920] 1
x[921] 0
x[922] 0
x[923] 1
x[924] 1
x[925] 0
x[926] 0
x[927] 0
x[928] 1
x[929] 1
x[930] 0
x[931] 0
x[932] 0
x[933] 0
x[934] 1
x[935] 0
x[936] 1
x[937] 1
x[938] 1
x[939] 1
x[940] 0
x[941] 0
x[942] 0
x[943] 1
x[944] 1
x[945] 1
x[946] 1
x[947] 0
x[948] 1
x[949] 0
x[950] 0
x[951] 1
x[952] 0
x[953] 1
x[954] 1
x[955] 0
x[956] 1
x[957] 1
x[958] 1
x[959] 0
x[960] 1
x[961] 0
x[962] 1
x[963] 1
x[964] 0
x[965] 1
x[966] 0
x[967] 0
x[968] 0
x[969] 0
x[970] 1
x[971] 1
x[972] 1
x[973] 1
x[974] 1
x[975] 0
x[976] 1
x[977] 0
x[978] 0
x[979] 0
x[980] 0
x[981] 1
x[982] 1
x[983] 0
x[984] 0
x[985] 1
x[986] 1
x[987] 1
x[988] 1
x[989] 0
x[990] 1
x[991] 1
x[992] 1
x[993] 0
x[994] 0
x[995] 1
x[996] 0
x[997] 1
x[998] 1
x[999] 1
